(set-logic QF_LRA)
(declare-fun X0 () Real )
(declare-fun Y0 () Real )
(declare-fun X1 () Real )
(declare-fun Y1 () Real )
(declare-fun X2 () Real )
(declare-fun Y2 () Real )
(declare-fun X3 () Real )
(declare-fun Y3 () Real )
(declare-fun X4 () Real )
(declare-fun Y4 () Real )
(declare-fun X5 () Real )
(declare-fun Y5 () Real )
(declare-fun Z () Real )
(assert ( and  
( or ( <= ( + X0 50 ) X1 )  ( <= ( + X1 43 ) X0 )  ( <= ( + Y0 36 ) Y1 )  ( <= ( + Y1 4 ) Y0 )  )
( or ( <= ( + X0 50 ) X2 )  ( <= ( + X2 90 ) X0 )  ( <= ( + Y0 36 ) Y2 )  ( <= ( + Y2 52 ) Y0 )  )
( or ( <= ( + X0 50 ) X3 )  ( <= ( + X3 71 ) X0 )  ( <= ( + Y0 36 ) Y3 )  ( <= ( + Y3 36 ) Y0 )  )
( or ( <= ( + X0 50 ) X4 )  ( <= ( + X4 27 ) X0 )  ( <= ( + Y0 36 ) Y4 )  ( <= ( + Y4 61 ) Y0 )  )
( or ( <= ( + X0 50 ) X5 )  ( <= ( + X5 94 ) X0 )  ( <= ( + Y0 36 ) Y5 )  ( <= ( + Y5 100 ) Y0 )  )
( or ( <= ( + X1 43 ) X2 )  ( <= ( + X2 90 ) X1 )  ( <= ( + Y1 4 ) Y2 )  ( <= ( + Y2 52 ) Y1 )  )
( or ( <= ( + X1 43 ) X3 )  ( <= ( + X3 71 ) X1 )  ( <= ( + Y1 4 ) Y3 )  ( <= ( + Y3 36 ) Y1 )  )
( or ( <= ( + X1 43 ) X4 )  ( <= ( + X4 27 ) X1 )  ( <= ( + Y1 4 ) Y4 )  ( <= ( + Y4 61 ) Y1 )  )
( or ( <= ( + X1 43 ) X5 )  ( <= ( + X5 94 ) X1 )  ( <= ( + Y1 4 ) Y5 )  ( <= ( + Y5 100 ) Y1 )  )
( or ( <= ( + X2 90 ) X3 )  ( <= ( + X3 71 ) X2 )  ( <= ( + Y2 52 ) Y3 )  ( <= ( + Y3 36 ) Y2 )  )
( or ( <= ( + X2 90 ) X4 )  ( <= ( + X4 27 ) X2 )  ( <= ( + Y2 52 ) Y4 )  ( <= ( + Y4 61 ) Y2 )  )
( or ( <= ( + X2 90 ) X5 )  ( <= ( + X5 94 ) X2 )  ( <= ( + Y2 52 ) Y5 )  ( <= ( + Y5 100 ) Y2 )  )
( or ( <= ( + X3 71 ) X4 )  ( <= ( + X4 27 ) X3 )  ( <= ( + Y3 36 ) Y4 )  ( <= ( + Y4 61 ) Y3 )  )
( or ( <= ( + X3 71 ) X5 )  ( <= ( + X5 94 ) X3 )  ( <= ( + Y3 36 ) Y5 )  ( <= ( + Y5 100 ) Y3 )  )
( or ( <= ( + X4 27 ) X5 )  ( <= ( + X5 94 ) X4 )  ( <= ( + Y4 61 ) Y5 )  ( <= ( + Y5 100 ) Y4 )  )
( >= X0 0)
( <= ( + X0 50) Z)
( >= Y0 0)
( <= ( + Y0 36 ) 122)
( >= X1 0)
( <= ( + X1 43) Z)
( >= Y1 0)
( <= ( + Y1 4 ) 122)
( >= X2 0)
( <= ( + X2 90) Z)
( >= Y2 0)
( <= ( + Y2 52 ) 122)
( >= X3 0)
( <= ( + X3 71) Z)
( >= Y3 0)
( <= ( + Y3 36 ) 122)
( >= X4 0)
( <= ( + X4 27) Z)
( >= Y4 0)
( <= ( + Y4 61 ) 122)
( >= X5 0)
( <= ( + X5 94) Z)
( >= Y5 0)
( <= ( + Y5 100 ) 122)
) )
(minimize Z)
(check-sat)
